4132
6151
5591
8246
8609
804
3457
9208
7662
4502
515
8044
4398
619
4052
4486
7613
2914
5043
3727
2056
2476
3971
2308
5552
5594
5874
8042
1520
9801
2382
2456
4918
839
7570
6295
3677
3341
5897
3045
7532
2228
1542
1442
7389
5163
3926
3739
1654
9592
3625
